(set-logic HORN)
(set-info :source |
    Benchmark: C_VC
    Output by Princess (http://www.philipp.ruemmer.org/princess.shtml)
|)
(set-info :status sat)
;===============================================================================
; Encoding of Heap sorts and operations
;-------------------------------------------------------------------------------
(define-sort Addr() Int)
(declare-datatypes ((AddrRange 0))
                   (((AddrRange (AddrRangeStart Addr) (AddrRangeSize Int)))))

(declare-datatypes ((HeapObject 0))
                   (((O_Int (getInt Int)) (O_UInt (getUInt Int)) (O_Addr (getAddr Addr)) (defObj))))
(declare-datatypes ((BatchAllocResHeap 0) (AllocResHeap 0) (Heap 0))
                   (((BatchAllocResHeap   (newBatchHeap Heap) (newAddrRange AddrRange)))
                   ((AllocResHeap   (newHeap Heap) (newAddr Addr)))
                    ((HeapCtor (HeapSize Int)
                               (HeapContents (Array Addr HeapObject))))))
(define-fun nullAddr  () Addr 0)
(define-fun validHeap     ((h Heap) (p Addr)) Bool
  (and (>= (HeapSize h) p) (> p 0)))
(define-fun emptyHeap () Heap (
  HeapCtor 0 (( as const (Array Addr HeapObject)) defObj)))
(define-fun readHeap ((h Heap) (p Addr)) HeapObject
  (ite (validHeap h p)
       (select (HeapContents h) p)
       defObj))
(define-fun writeHeap ((h Heap) (p Addr) (o HeapObject)) Heap
  (ite (validHeap h p)
       (HeapCtor (HeapSize h) (store (HeapContents h) p o))
       h))
(define-fun allocHeap   ((h Heap) (o HeapObject)) AllocResHeap
  (AllocResHeap (HeapCtor (+ 1 (HeapSize h))
                    (store (HeapContents h) (+ 1 (HeapSize h)) o))
          (+ 1 (HeapSize h))))
(define-fun Heap-eq     ((h1 Heap) (h2 Heap)) Bool
  (forall ((p Addr))
          (and (= (validHeap h1 p) (validHeap h2 p))
               (= (readHeap h1 p) (readHeap h2 p)))))
(define-fun nthAddrRange((ar AddrRange) (n Int)) Addr
  (ite (and (>= n 0) (< n (AddrRangeSize ar)))
       (+ (AddrRangeStart ar) n)
       nullAddr))
(define-fun withinHeap ((ar AddrRange ) (p Addr)) Bool
  (and (>= p (AddrRangeStart ar)) (< p (+ (AddrRangeStart ar) (AddrRangeSize ar)))))

(declare-fun batchAllocHeap     (Heap Heap HeapObject Int Int) Bool)
(declare-fun batchAllocPostHeap (Heap Heap HeapObject Int) Bool)

(assert (forall ((h1 Heap) (h2 Heap) (o HeapObject) (n1 Int) (n2 Int))
                (=> (and (> n2 0) (batchAllocHeap h1 h2 o n1 n2))
                   (batchAllocHeap h1 (newHeap (allocHeap h2 o)) o n1 (- n2 1)))))
(assert (forall ((h1 Heap) (h2 Heap) (o HeapObject) (n1 Int) (n2 Int))
                (=> (and (<= n2 0) (batchAllocHeap h1 h2 o n1 n2))
                   (batchAllocPostHeap h1 h2 o n1))))

(declare-fun batchWriteHeap     (Heap Heap Addr Addr HeapObject Int Int) Bool)
(declare-fun batchWritePostHeap (Heap Heap Addr HeapObject Int) Bool)

(assert (forall ((h1 Heap) (h2 Heap) (a1 Addr) (a2 Addr) (o HeapObject) (n1 Int) (n2 Int))
                (=> (and (> n2 0) (batchWriteHeap h1 h2 a1 a2 o n1 n2))
                   (batchWriteHeap h1 (writeHeap h2 a2 o) a1 (+ a2 1) o n1 (- n2 1)))))
(assert (forall ((h1 Heap) (h2 Heap) (a1 Addr) (a2 Addr) (o HeapObject) (n1 Int) (n2 Int))
                (=> (and (<= n2 0) (batchWriteHeap h1 h2 a1 a2 o n1 n2))
                   (batchWritePostHeap h1 h2 a1 o n1))))

;===============================================================================
(declare-fun inv_main11 (Heap Int Int Int Int Int AddrRange) Bool)
(declare-fun inv_main13 (Heap Int Int Int Int Int AddrRange) Bool)
(declare-fun inv_main14 (Heap Int Int Int Int Int AddrRange) Bool)
(declare-fun inv_main18 (Heap Int Int Int Int Int AddrRange) Bool)
(declare-fun inv_main19 (Heap Int Int Int Int Int AddrRange) Bool)
(declare-fun inv_main2 (Heap) Bool)
(declare-fun inv_main20 (Heap Int Int Int Int Int AddrRange) Bool)
(declare-fun inv_main24 (Heap Int Int Int Int Int AddrRange Int) Bool)
(declare-fun inv_main27 (Heap Int Int Int Int Int AddrRange) Bool)
(assert (inv_main2 emptyHeap))
(assert (forall ((var0 AddrRange) (var1 Int) (var2 Int) (var3 Int) (var4 Int) (var5 Int) (var6 Heap) (var7 Int) (var8 AddrRange) (var9 Int) (var10 Int) (var11 Int) (var12 Int) (var13 Int) (var14 Heap) (var15 Int) (var16 AddrRange) (var17 Int) (var18 Int) (var19 Int) (var20 Int) (var21 Int) (var22 Heap)) (or (not (and (and (and (and (and (and (and (and (and (and (and (and (and (and (and (and (and (and (and (inv_main18 var22 var21 var20 var19 var18 var17 var16) (or (and (<= 0 (+ (+ (* (- 1) var9) var7) (* (- 1) 1))) (= var15 1)) (and (not (<= 0 (+ (+ (* (- 1) var9) var7) (* (- 1) 1)))) (= var15 0)))) (= var0 var8)) (= var1 var9)) (= var2 var10)) (= var3 var11)) (= var4 var12)) (= var5 var13)) (= var6 var14)) (= var7 (getInt (readHeap var22 (nthAddrRange var16 var20))))) (= var8 var16)) (= var9 var17)) (= var10 var18)) (= var11 var19)) (= var12 var20)) (= var13 var21)) (= var14 var22)) (is-O_Int (readHeap var22 (nthAddrRange var16 var20)))) (<= 0 var20)) (not (= var15 0)))) (inv_main20 var6 var5 var4 var3 var2 var1 var0))))
(assert (forall ((var0 AddrRange) (var1 Int) (var2 Int) (var3 Int) (var4 Int) (var5 Int) (var6 Heap)) (or (not (and (and (inv_main13 var6 var5 var4 var3 var2 var1 var0) (not (<= 0 (+ (+ (* (- 1) var3) var5) (* (- 1) 1))))) (<= 0 (+ (+ (* (- 1) 1) var5) (* (- 1) 1))))) (inv_main27 var6 var5 var4 var3 1 var1 var0))))
(assert (forall ((var0 AddrRange) (var1 Int) (var2 Int) (var3 Int) (var4 Int) (var5 Int) (var6 Heap)) (or (not (and (and (and (inv_main27 var6 var5 var4 var3 var2 var1 var0) (is-O_Int (readHeap var6 (nthAddrRange var0 var2)))) (is-O_Int (readHeap var6 (nthAddrRange var0 (+ var2 (* (- 1) 1)))))) (<= 0 (+ (+ (* (- 1) (+ var2 1)) var5) (* (- 1) 1))))) (inv_main27 var6 var5 var4 var3 (+ var2 1) var1 var0))))
(assert (forall ((var0 Int) (var1 AddrRange) (var2 Int) (var3 Int) (var4 Int) (var5 Int) (var6 Int) (var7 Heap) (var8 AddrRange) (var9 Int) (var10 Int) (var11 Int) (var12 Int) (var13 Int) (var14 Heap)) (or (not (and (and (and (and (and (and (and (and (and (inv_main14 var14 var13 var12 var11 var10 var9 var8) (= var0 (getInt (readHeap var14 (nthAddrRange var8 var11))))) (= var1 var8)) (= var2 var9)) (= var3 var10)) (= var4 var11)) (= var5 var12)) (= var6 var13)) (= var7 var14)) (is-O_Int (readHeap var14 (nthAddrRange var8 var11))))) (inv_main18 var7 var6 (+ var4 (* (- 1) 1)) var4 var3 var0 var1))))
(assert (forall ((var0 AddrRange) (var1 Int) (var2 Int) (var3 Int) (var4 Int) (var5 Int) (var6 Heap) (var7 Int) (var8 AddrRange) (var9 Int) (var10 Int) (var11 Int) (var12 Int) (var13 Int) (var14 Heap)) (or (not (and (and (and (and (and (and (and (and (and (inv_main24 var14 var13 var12 var11 var10 var9 var8 var7) (= var0 var8)) (= var1 var9)) (= var2 var10)) (= var3 var11)) (= var4 var12)) (= var5 var13)) (= var6 (writeHeap var14 (nthAddrRange var8 (+ var12 1)) (O_Int var7)))) (is-O_Int (readHeap var14 (nthAddrRange var8 (+ var12 1))))) (is-O_Int (readHeap var14 (nthAddrRange var8 (+ var12 1)))))) (inv_main18 var6 var5 (+ var4 (* (- 1) 1)) var3 var2 var1 var0))))
(assert (forall ((var0 AddrRange) (var1 Int) (var2 Int) (var3 Int) (var4 Int) (var5 Int) (var6 Heap)) (or (not (and (inv_main18 var6 var5 var4 var3 var2 var1 var0) (not (<= 0 var4)))) (inv_main19 var6 var5 var4 var3 var2 var1 var0))))
(assert (forall ((var0 AddrRange) (var1 Int) (var2 Int) (var3 Int) (var4 Int) (var5 Int) (var6 Heap) (var7 Int) (var8 AddrRange) (var9 Int) (var10 Int) (var11 Int) (var12 Int) (var13 Int) (var14 Heap) (var15 Int) (var16 AddrRange) (var17 Int) (var18 Int) (var19 Int) (var20 Int) (var21 Int) (var22 Heap)) (or (not (and (and (and (and (and (and (and (and (and (and (and (and (and (and (and (and (and (and (and (inv_main18 var22 var21 var20 var19 var18 var17 var16) (or (and (<= 0 (+ (+ (* (- 1) var9) var7) (* (- 1) 1))) (= var15 1)) (and (not (<= 0 (+ (+ (* (- 1) var9) var7) (* (- 1) 1)))) (= var15 0)))) (= var0 var8)) (= var1 var9)) (= var2 var10)) (= var3 var11)) (= var4 var12)) (= var5 var13)) (= var6 var14)) (= var7 (getInt (readHeap var22 (nthAddrRange var16 var20))))) (= var8 var16)) (= var9 var17)) (= var10 var18)) (= var11 var19)) (= var12 var20)) (= var13 var21)) (= var14 var22)) (is-O_Int (readHeap var22 (nthAddrRange var16 var20)))) (<= 0 var20)) (= var15 0))) (inv_main19 var6 var5 var4 var3 var2 var1 var0))))
(assert (forall ((var0 AddrRange) (var1 Int) (var2 Int) (var3 Int) (var4 Int) (var5 Heap) (var6 Int) (var7 Int) (var8 AddrRange) (var9 Int) (var10 Int) (var11 Int) (var12 Int) (var13 Int) (var14 Heap)) (or (not (and (and (and (and (and (and (and (and (and (and (inv_main11 var14 var13 var12 var11 var10 var9 var8) (= var0 var8)) (= var1 var9)) (= var2 var10)) (= var6 var11)) (= var3 var12)) (= var7 var13)) (= var5 (writeHeap var14 (nthAddrRange var8 var11) (O_Int var4)))) (is-O_Int (readHeap var14 (nthAddrRange var8 var11)))) (is-O_Int (readHeap var14 (nthAddrRange var8 var11)))) (<= 0 (+ (+ (* (- 1) (+ var6 1)) var7) (* (- 1) 1))))) (inv_main11 var5 var7 var3 (+ var6 1) var2 var1 var0))))
(assert (forall ((var0 AddrRange) (var1 Int) (var2 Int) (var3 Int) (var4 Int) (var5 Int) (var6 Int) (var7 Int) (var8 Int) (var9 Int) (var10 Int) (var11 Heap) (var12 Int) (var13 Heap)) (or (not (and (batchAllocHeapPostHeap emptyHeap var11 (O_Int var10) var9) (and (and (and (and (and (and (and (and (and (inv_main2 var13) (<= 0 var9)) (= var0 (AddrRange (ite (<= 0 (+ var9 (- 1))) (+ (HeapSize emptyHeap) 1) (HeapSize emptyHeap)) var9))) (= var2 var1)) (= var4 var3)) (= var6 var5)) (= var8 var7)) (= var12 var9)) true) (<= 0 (+ var12 (* (- 1) 1)))))) (inv_main11 var11 var12 var8 0 var4 var2 var0))))
(assert (forall ((var0 AddrRange) (var1 Int) (var2 Int) (var3 Int) (var4 Int) (var5 Int) (var6 Int) (var7 Int) (var8 Int) (var9 Int) (var10 Int) (var11 Heap) (var12 Int) (var13 Heap)) (or (not (and (and (and (and (and (and (and (and (and (inv_main2 var13) (<= 0 var9)) (= var0 (AddrRange (ite (<= 0 (+ var9 (- 1))) (+ (HeapSize emptyHeap) 1) (HeapSize emptyHeap)) var9))) (= var2 var1)) (= var4 var3)) (= var6 var5)) (= var8 var7)) (= var12 var9)) true) (<= 0 (+ var12 (* (- 1) 1))))) (batchAllocHeap emptyHeap emptyHeap (O_Int var10) var9 var9))))
(assert (forall ((var0 AddrRange) (var1 Int) (var2 Int) (var3 Int) (var4 Int) (var5 Int) (var6 Heap) (var7 AddrRange) (var8 Int) (var9 Int) (var10 Int) (var11 Int) (var12 Int) (var13 Heap)) (or (not (and (and (and (and (and (and (and (and (and (inv_main19 var13 var12 var11 var10 var9 var8 var7) (= var0 var7)) (= var1 var8)) (= var2 var9)) (= var3 var10)) (= var4 var11)) (= var5 var12)) (= var6 (writeHeap var13 (nthAddrRange var7 (+ var11 1)) (O_Int var8)))) (is-O_Int (readHeap var13 (nthAddrRange var7 (+ var11 1))))) (is-O_Int (readHeap var13 (nthAddrRange var7 (+ var11 1)))))) (inv_main13 var6 var5 var4 (+ var3 1) var2 var1 var0))))
(assert (forall ((var0 AddrRange) (var1 Int) (var2 Int) (var3 Int) (var4 Int) (var5 Heap) (var6 Int) (var7 Int) (var8 AddrRange) (var9 Int) (var10 Int) (var11 Int) (var12 Int) (var13 Int) (var14 Heap)) (or (not (and (and (and (and (and (and (and (and (and (and (inv_main11 var14 var13 var12 var11 var10 var9 var8) (= var0 var8)) (= var1 var9)) (= var2 var10)) (= var6 var11)) (= var3 var12)) (= var7 var13)) (= var5 (writeHeap var14 (nthAddrRange var8 var11) (O_Int var4)))) (is-O_Int (readHeap var14 (nthAddrRange var8 var11)))) (is-O_Int (readHeap var14 (nthAddrRange var8 var11)))) (not (<= 0 (+ (+ (* (- 1) (+ var6 1)) var7) (* (- 1) 1)))))) (inv_main13 var5 var7 var3 1 var2 var1 var0))))
(assert (forall ((var0 AddrRange) (var1 Int) (var2 Int) (var3 Int) (var4 Int) (var5 Int) (var6 Int) (var7 Int) (var8 Int) (var9 Int) (var10 Int) (var11 Heap) (var12 Int) (var13 Heap)) (or (not (and (batchAllocHeapPostHeap emptyHeap var11 (O_Int var10) var9) (and (and (and (and (and (and (and (and (and (inv_main2 var13) (<= 0 var9)) (= var0 (AddrRange (ite (<= 0 (+ var9 (- 1))) (+ (HeapSize emptyHeap) 1) (HeapSize emptyHeap)) var9))) (= var2 var1)) (= var4 var3)) (= var6 var5)) (= var8 var7)) (= var12 var9)) true) (not (<= 0 (+ var12 (* (- 1) 1))))))) (inv_main13 var11 var12 var8 1 var4 var2 var0))))
(assert (forall ((var0 AddrRange) (var1 Int) (var2 Int) (var3 Int) (var4 Int) (var5 Int) (var6 Int) (var7 Int) (var8 Int) (var9 Int) (var10 Int) (var11 Heap) (var12 Int) (var13 Heap)) (or (not (and (and (and (and (and (and (and (and (and (inv_main2 var13) (<= 0 var9)) (= var0 (AddrRange (ite (<= 0 (+ var9 (- 1))) (+ (HeapSize emptyHeap) 1) (HeapSize emptyHeap)) var9))) (= var2 var1)) (= var4 var3)) (= var6 var5)) (= var8 var7)) (= var12 var9)) true) (not (<= 0 (+ var12 (* (- 1) 1)))))) (batchAllocHeap emptyHeap emptyHeap (O_Int var10) var9 var9))))
(assert (forall ((var0 AddrRange) (var1 Int) (var2 Int) (var3 Int) (var4 Int) (var5 Int) (var6 Heap)) (or (not (and (inv_main13 var6 var5 var4 var3 var2 var1 var0) (<= 0 (+ (+ (* (- 1) var3) var5) (* (- 1) 1))))) (inv_main14 var6 var5 var4 var3 var2 var1 var0))))
(assert (forall ((var0 AddrRange) (var1 Int) (var2 Int) (var3 Int) (var4 Int) (var5 Int) (var6 Heap)) (or (not (and (inv_main20 var6 var5 var4 var3 var2 var1 var0) (is-O_Int (readHeap var6 (nthAddrRange var0 var4))))) (inv_main24 var6 var5 var4 var3 var2 var1 var0 (getInt (readHeap var6 (nthAddrRange var0 var4)))))))
(assert (forall ((var0 AddrRange) (var1 Int) (var2 Int) (var3 Int) (var4 Int) (var5 Int) (var6 Heap)) (not (and (inv_main11 var6 var5 var4 var3 var2 var1 var0) (not (is-O_Int (readHeap var6 (nthAddrRange var0 var3))))))))
(assert (forall ((var0 AddrRange) (var1 Int) (var2 Int) (var3 Int) (var4 Int) (var5 Int) (var6 Heap)) (not (and (and (inv_main11 var6 var5 var4 var3 var2 var1 var0) (not (withinHeap var0 (nthAddrRange var0 var3)))) (is-O_Int (readHeap var6 (nthAddrRange var0 var3)))))))
(assert (forall ((var0 AddrRange) (var1 Int) (var2 Int) (var3 Int) (var4 Int) (var5 Int) (var6 Heap)) (not (and (and (inv_main11 var6 var5 var4 var3 var2 var1 var0) (not (is-O_Int (readHeap var6 (nthAddrRange var0 var3))))) (is-O_Int (readHeap var6 (nthAddrRange var0 var3)))))))
(assert (forall ((var0 AddrRange) (var1 Int) (var2 Int) (var3 Int) (var4 Int) (var5 Int) (var6 Heap)) (not (and (inv_main14 var6 var5 var4 var3 var2 var1 var0) (not (is-O_Int (readHeap var6 (nthAddrRange var0 var3))))))))
(assert (forall ((var0 AddrRange) (var1 Int) (var2 Int) (var3 Int) (var4 Int) (var5 Int) (var6 Heap)) (not (and (and (inv_main14 var6 var5 var4 var3 var2 var1 var0) (not (withinHeap var0 (nthAddrRange var0 var3)))) (is-O_Int (readHeap var6 (nthAddrRange var0 var3)))))))
(assert (forall ((var0 AddrRange) (var1 Int) (var2 Int) (var3 Int) (var4 Int) (var5 Int) (var6 Heap)) (not (and (and (inv_main18 var6 var5 var4 var3 var2 var1 var0) (not (is-O_Int (readHeap var6 (nthAddrRange var0 var4))))) (<= 0 var4)))))
(assert (forall ((var0 AddrRange) (var1 Int) (var2 Int) (var3 Int) (var4 Int) (var5 Int) (var6 Heap)) (not (and (and (and (inv_main18 var6 var5 var4 var3 var2 var1 var0) (not (withinHeap var0 (nthAddrRange var0 var4)))) (is-O_Int (readHeap var6 (nthAddrRange var0 var4)))) (<= 0 var4)))))
(assert (forall ((var0 AddrRange) (var1 Int) (var2 Int) (var3 Int) (var4 Int) (var5 Int) (var6 Heap)) (not (and (inv_main20 var6 var5 var4 var3 var2 var1 var0) (not (is-O_Int (readHeap var6 (nthAddrRange var0 var4))))))))
(assert (forall ((var0 AddrRange) (var1 Int) (var2 Int) (var3 Int) (var4 Int) (var5 Int) (var6 Heap)) (not (and (and (inv_main20 var6 var5 var4 var3 var2 var1 var0) (not (withinHeap var0 (nthAddrRange var0 var4)))) (is-O_Int (readHeap var6 (nthAddrRange var0 var4)))))))
(assert (forall ((var0 Int) (var1 AddrRange) (var2 Int) (var3 Int) (var4 Int) (var5 Int) (var6 Int) (var7 Heap)) (not (and (inv_main24 var7 var6 var5 var4 var3 var2 var1 var0) (not (is-O_Int (readHeap var7 (nthAddrRange var1 (+ var5 1)))))))))
(assert (forall ((var0 Int) (var1 AddrRange) (var2 Int) (var3 Int) (var4 Int) (var5 Int) (var6 Int) (var7 Heap)) (not (and (and (inv_main24 var7 var6 var5 var4 var3 var2 var1 var0) (not (withinHeap var1 (nthAddrRange var1 (+ var5 1))))) (is-O_Int (readHeap var7 (nthAddrRange var1 (+ var5 1))))))))
(assert (forall ((var0 Int) (var1 AddrRange) (var2 Int) (var3 Int) (var4 Int) (var5 Int) (var6 Int) (var7 Heap)) (not (and (and (inv_main24 var7 var6 var5 var4 var3 var2 var1 var0) (not (is-O_Int (readHeap var7 (nthAddrRange var1 (+ var5 1)))))) (is-O_Int (readHeap var7 (nthAddrRange var1 (+ var5 1))))))))
(assert (forall ((var0 AddrRange) (var1 Int) (var2 Int) (var3 Int) (var4 Int) (var5 Int) (var6 Heap)) (not (and (inv_main19 var6 var5 var4 var3 var2 var1 var0) (not (is-O_Int (readHeap var6 (nthAddrRange var0 (+ var4 1)))))))))
(assert (forall ((var0 AddrRange) (var1 Int) (var2 Int) (var3 Int) (var4 Int) (var5 Int) (var6 Heap)) (not (and (and (inv_main19 var6 var5 var4 var3 var2 var1 var0) (not (withinHeap var0 (nthAddrRange var0 (+ var4 1))))) (is-O_Int (readHeap var6 (nthAddrRange var0 (+ var4 1))))))))
(assert (forall ((var0 AddrRange) (var1 Int) (var2 Int) (var3 Int) (var4 Int) (var5 Int) (var6 Heap)) (not (and (and (inv_main19 var6 var5 var4 var3 var2 var1 var0) (not (is-O_Int (readHeap var6 (nthAddrRange var0 (+ var4 1)))))) (is-O_Int (readHeap var6 (nthAddrRange var0 (+ var4 1))))))))
(assert (forall ((var0 AddrRange) (var1 Int) (var2 Int) (var3 Int) (var4 Int) (var5 Int) (var6 Heap)) (not (and (inv_main27 var6 var5 var4 var3 var2 var1 var0) (not (is-O_Int (readHeap var6 (nthAddrRange var0 (+ var2 (* (- 1) 1))))))))))
(assert (forall ((var0 AddrRange) (var1 Int) (var2 Int) (var3 Int) (var4 Int) (var5 Int) (var6 Heap)) (not (and (inv_main27 var6 var5 var4 var3 var2 var1 var0) (not (withinHeap var0 (nthAddrRange var0 (+ var2 (* (- 1) 1)))))))))
(assert (forall ((var0 AddrRange) (var1 Int) (var2 Int) (var3 Int) (var4 Int) (var5 Int) (var6 Heap)) (not (and (inv_main27 var6 var5 var4 var3 var2 var1 var0) (not (is-O_Int (readHeap var6 (nthAddrRange var0 var2))))))))
(assert (forall ((var0 AddrRange) (var1 Int) (var2 Int) (var3 Int) (var4 Int) (var5 Int) (var6 Heap)) (not (and (inv_main27 var6 var5 var4 var3 var2 var1 var0) (not (withinHeap var0 (nthAddrRange var0 var2)))))))
(assert (forall ((var0 AddrRange) (var1 Int) (var2 Int) (var3 Int) (var4 Int) (var5 Int) (var6 Heap)) (not (and (inv_main27 var6 var5 var4 var3 var2 var1 var0) (not (is-O_Int (readHeap var6 (nthAddrRange var0 (+ var2 (* (- 1) 1))))))))))
(assert (forall ((var0 AddrRange) (var1 Int) (var2 Int) (var3 Int) (var4 Int) (var5 Int) (var6 Heap)) (not (and (and (inv_main27 var6 var5 var4 var3 var2 var1 var0) (not (withinHeap var0 (nthAddrRange var0 (+ var2 (* (- 1) 1)))))) (is-O_Int (readHeap var6 (nthAddrRange var0 (+ var2 (* (- 1) 1)))))))))
(assert (forall ((var0 AddrRange) (var1 Int) (var2 Int) (var3 Int) (var4 Int) (var5 Int) (var6 Heap)) (not (and (and (inv_main27 var6 var5 var4 var3 var2 var1 var0) (not (is-O_Int (readHeap var6 (nthAddrRange var0 var2))))) (is-O_Int (readHeap var6 (nthAddrRange var0 (+ var2 (* (- 1) 1)))))))))
(assert (forall ((var0 AddrRange) (var1 Int) (var2 Int) (var3 Int) (var4 Int) (var5 Int) (var6 Heap)) (not (and (and (and (inv_main27 var6 var5 var4 var3 var2 var1 var0) (not (withinHeap var0 (nthAddrRange var0 var2)))) (is-O_Int (readHeap var6 (nthAddrRange var0 var2)))) (is-O_Int (readHeap var6 (nthAddrRange var0 (+ var2 (* (- 1) 1)))))))))
(assert (forall ((var0 AddrRange) (var1 Int) (var2 Int) (var3 Int) (var4 Int) (var5 Int) (var6 Heap)) (not (and (and (and (inv_main27 var6 var5 var4 var3 var2 var1 var0) (not (<= 0 (+ (getInt (readHeap var6 (nthAddrRange var0 var2))) (* (- 1) (getInt (readHeap var6 (nthAddrRange var0 (+ var2 (* (- 1) 1)))))))))) (is-O_Int (readHeap var6 (nthAddrRange var0 var2)))) (is-O_Int (readHeap var6 (nthAddrRange var0 (+ var2 (* (- 1) 1)))))))))
(check-sat)
